Route #1: 43 41 29 19 36 31
Route #2: 38 17 23 25 10 22
Route #3: 8 15 42 1 37 30 5 21
Route #4: 9 14 24 28 6 4 26
Route #5: 40 16 20 7 18 13 32
Route #6: 2 3 11 27 33 44
Route #7: 12 34 35 39
Cost 1199.9759634376967